70753 77806 
68857 77856 
76794 76700 
73407 77546 
74186 77426 
73229 77576 
73984 77442 
75235 77235 
70011 77823 
68958 77834 
76984 76643 
77568 76391 
78420 76144 
74586 77385 
72270 77700 
73728 77524 
72973 77675 
74362 77419 
73522 77543 
73622 77525 
73849 77492 
73094 77643 
71460 77768 
75811 77072 
76169 76905 
78905 75968 
78610 76087 
77880 76376 
77497 76422 
70983 77797 
73909 77460 
73154 77611 
72135 77767 
70675 77822 
76336 76885 
78325 76166 
79095 75911 
77231 76526 
77331 76508 
71410 77789 
76526 76828 
75022 77264 
75627 77082 
78515 76109 
77308 76517 
